Version identifier: 22.1.0.0 | 2022-03-09 | 1a383f8ce
CPXPARAM_Threads                                 1
CPXPARAM_MIP_Strategy_VariableSelect             3
CPXPARAM_TimeLimit                               599.999982284
1 of 1 MIP starts provided solutions.
MIP start 'm1' defined initial solution with objective 5.0000.
Tried aggregator 1 time.
MIP Presolve eliminated 9 rows and 0 columns.
MIP Presolve modified 4 coefficients.
Reduced MIP has 1416 rows, 5000 columns, and 70982 nonzeros.
Reduced MIP has 5000 binaries, 0 generals, 0 SOSs, and 0 indicators.
Presolve time = 0.05 sec. (38.59 ticks)
Probing time = 0.00 sec. (5.98 ticks)
Tried aggregator 1 time.
Detecting symmetries...
Reduced MIP has 1416 rows, 5000 columns, and 70982 nonzeros.
Reduced MIP has 5000 binaries, 0 generals, 0 SOSs, and 0 indicators.
Presolve time = 0.05 sec. (41.28 ticks)
Probing time = 0.00 sec. (5.98 ticks)
Clique table members: 799.
MIP emphasis: balance optimality and feasibility.
MIP search method: dynamic search.
Parallel mode: none, using 1 thread.
Root relaxation solution time = 0.70 sec. (729.63 ticks)

        Nodes                                         Cuts/
   Node  Left     Objective  IInf  Best Integer    Best Bound    ItCnt     Gap

*     0+    0                            5.0000     5000.0000              --- 
      0     0      200.0000   866        5.0000      200.0000     3327     --- 
      0     0      200.0000   308        5.0000       Cuts: 5     5363     --- 
*     0+    0                           33.0000      200.0000           506.06%
      0     0      200.0000   143       33.0000       Cuts: 2     5842  506.06%
      0     0      200.0000   553       33.0000      Cuts: 32     9364  506.06%
*     0+    0                          160.0000      200.0000            25.00%
*     0+    0                          179.0000      200.0000            11.73%
*     0+    0                          185.0000      200.0000             8.11%
*     0+    0                          191.0000      200.0000             4.71%
      0     0        cutoff            191.0000      200.0000     9364    4.71%
Detecting symmetries...
      0     2      200.0000    70      191.0000      200.0000     9364    4.71%
Elapsed time = 19.18 sec. (21493.78 ticks, tree = 0.01 MB, solutions = 6)
      1     3      200.0000   768      191.0000      200.0000    16008    4.71%
      2     4      200.0000   201      191.0000      200.0000    18159    4.71%
      3     5      200.0000   563      191.0000      200.0000    22659    4.71%
      4     6      200.0000   345      191.0000      200.0000    22818    4.71%
      5     7      200.0000   787      191.0000      200.0000    26093    4.71%
      6     8      200.0000   332      191.0000      200.0000    29175    4.71%
      7     9      200.0000   779      191.0000      200.0000    36362    4.71%
      8    10      200.0000   340      191.0000      200.0000    36795    4.71%
      9    11      200.0000   332      191.0000      200.0000    41524    4.71%
     10    12      200.0000   331      191.0000      200.0000    41526    4.71%
Elapsed time = 29.10 sec. (32516.25 ticks, tree = 0.09 MB, solutions = 6)
     11    13      200.0000   392      191.0000      200.0000    44872    4.71%
     13    15      200.0000   432      191.0000      200.0000    48171    4.71%
     16    18      200.0000   314      191.0000      200.0000    51413    4.71%
     17    19      200.0000   455      191.0000      200.0000    54720    4.71%
     19    21      200.0000   379      191.0000      200.0000    60323    4.71%
     21    23      200.0000   559      191.0000      200.0000    65152    4.71%
     24    26      200.0000   597      191.0000      200.0000    69659    4.71%
     26    28      200.0000   531      191.0000      200.0000    78890    4.71%
     28    30      200.0000   469      191.0000      200.0000    82520    4.71%
     30    32      200.0000   588      191.0000      200.0000    89597    4.71%
Elapsed time = 41.47 sec. (45832.90 ticks, tree = 0.33 MB, solutions = 6)
     32    34      200.0000   540      191.0000      200.0000   100055    4.71%
     33    35      200.0000   324      191.0000      200.0000   103888    4.71%
     36    38      200.0000   269      191.0000      200.0000   108567    4.71%
     38    40      200.0000   338      191.0000      200.0000   114203    4.71%
     40    42      200.0000   370      191.0000      200.0000   121195    4.71%
     43    45      200.0000   424      191.0000      200.0000   126776    4.71%
     47    49      200.0000   321      191.0000      200.0000   128176    4.71%
     51    53      200.0000   324      191.0000      200.0000   130170    4.71%
     54    56      199.8905   366      191.0000      200.0000   135843    4.71%
     59    61      199.8690   354      191.0000      200.0000   143665    4.71%
Elapsed time = 53.60 sec. (58038.18 ticks, tree = 0.71 MB, solutions = 6)
     64    66      199.9647   377      191.0000      200.0000   145226    4.71%
     68    70      199.9647   372      191.0000      200.0000   150184    4.71%
     70    72      199.4894   299      191.0000      200.0000   153235    4.71%
     75    77      199.9465   364      191.0000      200.0000   154735    4.71%
     79    81      199.8742   337      191.0000      200.0000   162375    4.71%
     83    85      199.9255   272      191.0000      200.0000   167000    4.71%
     87    89      199.8617   264      191.0000      200.0000   171691    4.71%
     90    92      199.9255   269      191.0000      200.0000   175709    4.71%
     94    96      199.9255   271      191.0000      200.0000   182245    4.71%
     98   100      198.6667   231      191.0000      200.0000   186943    4.71%
Elapsed time = 65.93 sec. (70333.80 ticks, tree = 1.22 MB, solutions = 6)
    100   102      199.9255   266      191.0000      200.0000   190348    4.71%
    103   105      199.7979   223      191.0000      200.0000   197302    4.71%
    106   108      199.9255   273      191.0000      200.0000   204813    4.71%
    109   111      199.7340   258      191.0000      200.0000   210896    4.71%
    113   115      199.9054   234      191.0000      200.0000   219367    4.71%
    116   118      199.8729   272      191.0000      200.0000   227741    4.71%
    119   121      199.8409   281      191.0000      200.0000   233708    4.71%
    120   122      199.5672   272      191.0000      200.0000   236931    4.71%
    125   127      199.8409   256      191.0000      200.0000   241165    4.71%
    129   131      199.6522   278      191.0000      200.0000   248322    4.71%
Elapsed time = 78.16 sec. (82311.54 ticks, tree = 1.51 MB, solutions = 6)
    133   135      199.6087   293      191.0000      200.0000   253657    4.71%
    136   138      199.7778   314      191.0000      200.0000   258785    4.71%
    140   142      199.7600   334      191.0000      200.0000   269631    4.71%
    146   148      198.6667   275      191.0000      200.0000   273421    4.71%
    152   152    infeasible            191.0000      200.0000   279719    4.71%
    158   158      199.7600   294      191.0000      200.0000   282908    4.71%
    164   164      198.6667   283      191.0000      200.0000   287689    4.71%
    170   170      199.7600   296      191.0000      200.0000   291544    4.71%
    176   176      198.6667   254      191.0000      200.0000   296340    4.71%
    181   181      198.6667   282      191.0000      200.0000   299195    4.71%
Elapsed time = 89.99 sec. (94392.53 ticks, tree = 1.62 MB, solutions = 6)
    187   187      199.7600   308      191.0000      200.0000   303187    4.71%
    191   191      199.7600   309      191.0000      200.0000   309090    4.71%
    197   197      199.7600   305      191.0000      200.0000   312057    4.71%
    200   200      199.7600   306      191.0000      200.0000   313907    4.71%
    204   204      199.7600   332      191.0000      200.0000   319494    4.71%
    209   209      199.0000   221      191.0000      200.0000   325670    4.71%
    214   214      199.0000   240      191.0000      200.0000   330500    4.71%
    219   219      199.5000   311      191.0000      200.0000   335779    4.71%
    222   222      199.4497   228      191.0000      200.0000   342121    4.71%
    228   228      199.6650   329      191.0000      200.0000   347428    4.71%
Elapsed time = 100.20 sec. (104744.02 ticks, tree = 1.71 MB, solutions = 6)
    234   234      198.6667   189      191.0000      200.0000   353057    4.71%
    240   240      199.7127   317      191.0000      200.0000   358074    4.71%
    247   247      199.6101   306      191.0000      200.0000   362587    4.71%
    254   254      199.7127   318      191.0000      200.0000   366179    4.71%
    259   259      199.6323   362      191.0000      200.0000   371771    4.71%
    260   260      199.2864   265      191.0000      200.0000   373970    4.71%
    267   267      199.6093   299      191.0000      200.0000   377720    4.71%
    274   274      199.6000   319      191.0000      200.0000   380858    4.71%
    280   279      199.6000   298      191.0000      200.0000   383287    4.71%
    285   284      199.4400   283      191.0000      200.0000   388168    4.71%
Elapsed time = 112.58 sec. (116910.30 ticks, tree = 1.84 MB, solutions = 6)
    290   289      198.5946   258      191.0000      200.0000   393861    4.71%
    297   296      199.4400   302      191.0000      200.0000   397173    4.71%
    304   303      199.4286   283      191.0000      200.0000   400999    4.71%
    311   310      199.0000   283      191.0000      200.0000   406671    4.71%
    319   318      198.9600   254      191.0000      200.0000   410521    4.71%
    325   324      199.3889   234      191.0000      200.0000   414390    4.71%
    332   331      199.3623   299      191.0000      200.0000   420357    4.71%
    341   340      199.3232   323      191.0000      200.0000   425242    4.71%
    348   347      198.5655   292      191.0000      200.0000   431851    4.71%
    356   355      198.7647   239      191.0000      200.0000   436739    4.71%
Elapsed time = 123.32 sec. (127193.57 ticks, tree = 1.99 MB, solutions = 6)
    362   360      199.0569   310      191.0000      200.0000   441609    4.71%
    370   368      199.0490   313      191.0000      200.0000   446134    4.71%
    378   375      198.7857   252      191.0000      200.0000   451557    4.71%
    386   383      198.5000   208      191.0000      200.0000   457028    4.71%
    395   391      198.0000   160      191.0000      200.0000   462871    4.71%
    402   398      197.9048   195      191.0000      200.0000   471637    4.71%
    412   405      196.9375   107      191.0000      200.0000   477757    4.71%
    423   414      196.0000    10      191.0000      200.0000   485295    4.71%
    432   418      195.6000    15      191.0000      200.0000   493649    4.71%
*   440+  416                          193.0000      200.0000             3.63%
    448   420      200.0000   261      193.0000      200.0000   510650    3.63%
Elapsed time = 137.47 sec. (140257.32 ticks, tree = 2.11 MB, solutions = 7)
    458   430      200.0000   228      193.0000      200.0000   524028    3.63%
    468   440      200.0000   226      193.0000      200.0000   542498    3.63%
    480   452      199.9696   290      193.0000      200.0000   558222    3.63%
    502   474      199.9476   268      193.0000      200.0000   570105    3.63%
    526   496      199.9475   270      193.0000      200.0000   580207    3.63%
*   550+  481                          197.0000      200.0000             1.52%
    550   483      199.9421   278      197.0000      200.0000   594655    1.52%
    552   485      200.0000   172      197.0000      200.0000   600173    1.52%
    554   487      200.0000   182      197.0000      200.0000   602512    1.52%
    568   501      199.7859   322      197.0000      200.0000   624380    1.52%
    593   526      199.7859   292      197.0000      200.0000   631792    1.52%
Elapsed time = 191.18 sec. (191656.81 ticks, tree = 2.34 MB, solutions = 8)
    616   549      199.7859   291      197.0000      200.0000   639474    1.52%
    640   573      199.5546   268      197.0000      200.0000   653651    1.52%

Performing restart 1

Repeating presolve.
Tried aggregator 1 time.
Reduced MIP has 1416 rows, 5000 columns, and 70982 nonzeros.
Reduced MIP has 5000 binaries, 0 generals, 0 SOSs, and 0 indicators.
Presolve time = 0.05 sec. (35.55 ticks)
Tried aggregator 1 time.
Reduced MIP has 1416 rows, 5000 columns, and 70982 nonzeros.
Reduced MIP has 5000 binaries, 0 generals, 0 SOSs, and 0 indicators.
Presolve time = 0.05 sec. (42.30 ticks)
Represolve time = 0.31 sec. (242.63 ticks)
    660     0      200.0000   453      197.0000       Cuts: 7   671409    1.52%
    660     0      200.0000   593      197.0000       Cuts: 6   673388    1.52%
    660     0      200.0000   371      197.0000      Cuts: 11   675811    1.52%
    660     0      200.0000   637      197.0000      Cuts: 10   679178    1.52%
    660     0      200.0000   198      197.0000       Cuts: 8   680429    1.52%
    660     0      200.0000   718      197.0000      Cuts: 30   683145    1.52%
    660     0      200.0000   201      197.0000       Cuts: 3   684864    1.52%
    660     2      200.0000    96      197.0000      200.0000   684864    1.52%
    663     5      200.0000   338      197.0000      200.0000   696651    1.52%
    668    10      200.0000   604      197.0000      200.0000   707998    1.52%
    674    16      200.0000   397      197.0000      200.0000   720943    1.52%
    680    22      200.0000   216      197.0000      200.0000   729214    1.52%
    685    27      200.0000   138      197.0000      200.0000   741745    1.52%
    689    31      200.0000   303      197.0000      200.0000   754356    1.52%
    695    37      200.0000   263      197.0000      200.0000   762471    1.52%
Elapsed time = 271.88 sec. (280399.92 ticks, tree = 0.31 MB, solutions = 8)
    699    41      200.0000   296      197.0000      200.0000   777827    1.52%
    709    51      200.0000   175      197.0000      200.0000   787701    1.52%
    713    55      200.0000   158      197.0000      200.0000   802173    1.52%
    720    62      199.9097   411      197.0000      200.0000   814114    1.52%
    726    68      200.0000   266      197.0000      200.0000   828000    1.52%
    732    74      200.0000   223      197.0000      200.0000   845986    1.52%
    738    80      199.8589   447      197.0000      200.0000   869074    1.52%
    742    84      200.0000   200      197.0000      200.0000   893171    1.52%
    750    92      199.8921   364      197.0000      200.0000   911328    1.52%
    756    98      199.7842   365      197.0000      200.0000   930843    1.52%
Elapsed time = 314.72 sec. (324255.99 ticks, tree = 0.94 MB, solutions = 8)
    760   102      199.8705   361      197.0000      200.0000   941709    1.52%
    765   107      199.8473   417      197.0000      200.0000   958932    1.52%
    778   120      199.9528   379      197.0000      200.0000   969306    1.52%
    791   133      199.0000   223      197.0000      200.0000   979580    1.52%
    800   142      199.0000   229      197.0000      200.0000   985759    1.52%
    810   152      199.9482   387      197.0000      200.0000   998553    1.52%
    820   162      199.8440   450      197.0000      200.0000  1011423    1.52%
    832   174      199.4839   302      197.0000      200.0000  1024227    1.52%
    843   185      199.0000   320      197.0000      200.0000  1035707    1.52%
    860   202      199.0000   356      197.0000      200.0000  1045823    1.52%
Elapsed time = 376.69 sec. (383833.40 ticks, tree = 1.20 MB, solutions = 8)
    879   221      199.8403   403      197.0000      200.0000  1052263    1.52%
    900   242      199.8392   391      197.0000      200.0000  1055994    1.52%
    919   261      199.8367   421      197.0000      200.0000  1065484    1.52%
    930   272      199.8360   346      197.0000      200.0000  1071046    1.52%
    939   281      199.8315   428      197.0000      200.0000  1087512    1.52%
    940   282      198.8462   364      197.0000      200.0000  1090711    1.52%
    950   292      199.8223   404      197.0000      200.0000  1104830    1.52%
    962   304      199.0000   254      197.0000      200.0000  1117206    1.52%
    972   313      199.7922   356      197.0000      200.0000  1132064    1.52%
    982   321      198.6667   311      197.0000      200.0000  1145919    1.52%
Elapsed time = 418.65 sec. (425600.16 ticks, tree = 1.46 MB, solutions = 8)
    995   333      198.6667   278      197.0000      200.0000  1160938    1.52%
   1006   342      198.4464   323      197.0000      200.0000  1180702    1.52%
   1019   354      199.7621   371      197.0000      200.0000  1194177    1.52%
   1031   366      199.7448   401      197.0000      200.0000  1207825    1.52%
   1047   381      198.6667   271      197.0000      200.0000  1218779    1.52%
   1056   390      199.7321   404      197.0000      200.0000  1232829    1.52%
   1064   398      199.0000   292      197.0000      200.0000  1253600    1.52%
   1073   407      199.7046   287      197.0000      200.0000  1269472    1.52%
   1083   416      198.5000   248      197.0000      200.0000  1285783    1.52%
   1096   429      199.6949   362      197.0000      200.0000  1298044    1.52%
Elapsed time = 460.46 sec. (467592.45 ticks, tree = 1.68 MB, solutions = 8)
   1103   434      198.5000   250      197.0000      200.0000  1315088    1.52%
   1112   442      198.5000   261      197.0000      200.0000  1332028    1.52%
   1121   450      199.6727   243      197.0000      200.0000  1346218    1.52%
   1128   455      198.1852   284      197.0000      200.0000  1364482    1.52%
   1140   464      199.6316   409      197.0000      200.0000  1374841    1.52%
   1152   468      199.5815   372      197.0000      200.0000  1394151    1.52%
   1161   469      199.5193   373      197.0000      200.0000  1411058    1.52%
   1171   475      199.2899   282      197.0000      200.0000  1427416    1.52%
   1180   479      199.2012   258      197.0000      200.0000  1445490    1.52%
   1188   479        cutoff            197.0000      200.0000  1469354    1.52%
Elapsed time = 503.64 sec. (510483.08 ticks, tree = 1.79 MB, solutions = 8)
   1199   486      198.5000   232      197.0000      200.0000  1485614    1.52%
   1211   490      198.6000   333      197.0000      200.0000  1503600    1.52%
   1222   498      198.6000   175      197.0000      200.0000  1520044    1.52%
   1234   503        cutoff            197.0000      200.0000  1535774    1.52%
   1246   513      198.6000   195      197.0000      200.0000  1551850    1.52%
   1263   524      198.0000   202      197.0000      200.0000  1568774    1.52%
   1282   526      198.4516   144      197.0000      200.0000  1587856    1.52%
   1297   532      198.4348   233      197.0000      200.0000  1604473    1.52%
   1309   536      198.2857   230      197.0000      200.0000  1624230    1.52%
   1324   546      199.8092   361      197.0000      200.0000  1636917    1.52%
Elapsed time = 545.19 sec. (550546.48 ticks, tree = 1.94 MB, solutions = 8)
   1335   557      199.0000   402      197.0000      200.0000  1650437    1.52%
   1346   568      199.7885   415      197.0000      200.0000  1662505    1.52%
   1357   579      199.0000   292      197.0000      200.0000  1675546    1.52%
Starting limited solution polishing.
   1360   582      199.7798   451      197.0000      200.0000  1675555    1.52%
   1380   602      199.7780   430      197.0000      200.0000  1682300    1.52%
   1394   616      199.7764   442      197.0000      200.0000  1693622    1.52%
   1413   635      199.7748   431      197.0000      200.0000  1702329    1.52%
   1432   652      198.9048   357      197.0000      200.0000  1707566    1.52%
   1446   664      199.7585   394      197.0000      200.0000  1721142    1.52%
   1460   678      199.7426   336      197.0000      200.0000  1730492    1.52%
Elapsed time = 598.93 sec. (602373.13 ticks, tree = 2.22 MB, solutions = 8)

Clique cuts applied:  2
Zero-half cuts applied:  3
Gomory fractional cuts applied:  1

Root node processing (before b&c):
  Real time             =   19.10 sec. (21391.59 ticks)
Sequential b&c:
  Real time             =  580.91 sec. (582055.07 ticks)
                          ------------
Total (root+branch&cut) =  600.00 sec. (603446.65 ticks)
Primal:	197
Dual:	200
Status:	Feasible
Time:	600
Sequence:
	21
	9
	16
	10
	7
	14
	12
	7
	14
	12
	18
	0
	21
	7
	16
	10
	19
	1
	18
	10
	14
	9
	12
	14
	7
	21
	0
	18
	10
	16
	7
	13
	14
	7
	21
	1
	19
	12
	14
	7
	10
	14
	8
	23
	1
	18
	10
	14
	9
	12
	14
	7
	21
	2
	18
	12
	14
	7
	21
	2
	18
	10
	16
	7
	21
	2
	18
	10
	16
	7
	13
	14
	7
	21
	1
	19
	12
	14
	7
	21
	1
	19
	10
	16
	7
	10
	15
	7
	18
	5
	18
	7
	17
	7
	18
	3
	14
	8
	23
	1
	18
	3
	8
	18
	3
	7
	18
	3
	20
	7
	3
	18
	7
	14
	11
	7
	14
	12
	18
	2
	21
	7
	14
	12
	9
	14
	10
	7
	16
	10
	9
	14
	10
	7
	14
	4
	18
	1
	23
	7
	15
	10
	18
	1
	23
	7
	15
	10
	7
	14
	10
	20
	1
	21
	7
	14
	8
	18
	3
	7
	18
	5
	7
	19
	3
	18
	7
	5
	8
	18
	5
	18
	7
	6
	18
	7
	16
	7
	20
	3
	18
	7
	5
	20
	7
	14
	7
	12
	15
	7
	18
	5
	18
	7
	16
	7
	21
